(declare-const p3 Real)
(declare-const fee_bl Real)
(declare-const p2 Real)
(declare-const income Real)
(declare-const p4 Real)
(declare-const p1 Real)
(assert (= p1 (* 0.035 (ite (> income 14680) 14680 income))))
(assert (= p2 (ite (> income 14680) (* 0.044 (- (ite (> income 29370) 29370 income) 14680)) 0)))
(assert (= p3 (ite (> income 29370) (* 0.053 (- (ite (> income 323290) 323290 income) 29370)) 0)))
(assert (= p4 (ite (> income 323290) (* 0.0765 (- income 323290)) 0)))
(assert (= fee_bl (+ (+ (+ p1 p2) p3) p4)))